data/solutions/recovery/wellformed/moderate/binding/wellformed_moderate_instance89/53.sol
Elapsed time: 0.03
Upper bound: 7998.0
Planning weighted value: 437643.0
C[0]=7998.0
C[1]=7578.0
C[2]=7262.0
C[3]=7117.0
C[4]=6765.0
C[5]=6643.0
y[0]=4
y[1]=1
y[2]=4
y[3]=1
y[4]=3
y[5]=3
y[6]=5
y[7]=2
y[8]=0
y[9]=4
y[10]=5
y[11]=5
y[12]=0
y[13]=1
y[14]=4
y[15]=2
y[16]=2
y[17]=4
y[18]=0
y[19]=1
y[20]=5
y[21]=0
y[22]=0
y[23]=5
y[24]=2
y[25]=3
y[26]=2
y[27]=3
y[28]=0
y[29]=5
y[30]=4
y[31]=3
y[32]=1
y[33]=5
y[34]=3
y[35]=4
y[36]=1
y[37]=1
y[38]=2
y[39]=0
y[40]=1
y[41]=0
